NAME : Unnamed.454.tour
COMMENT : Length = 454
COMMENT : Found by LKH [Keld Helsgaun] Thu Oct 02 13:46:52 2014
TYPE : TOUR
DIMENSION : 24
TOUR_SECTION
1
22
8
13
6
12
5
4
14
7
16
11
9
10
15
17
23
18
19
21
3
20
2
24
-1
EOF
